
%    +---------------+
% 10 | | | | | | | | |
% 9  | | | | | | | | |
% 8  | | | | | | | | |
% 7  | | | | | | | | |
% 6  | | | | | | | | |
% 5  | | | | | | | | |
% 4  | | | | | | | | |
% 3  |1|1| | |3| |5| |
% 2  |1|1|2|8| | | | |
% 1  | | | | |4| |6|7|
%    +---------------+
n=8;
m=10;
h=2;
%maxT=15;
boxNumber=8;
boxSideLen = [2, 1, 1, 1, 1, 1, 1, 1];
boxStartX  = [1, 3, 5, 5, 7, 7, 8, 4];
boxStartY  = [2, 2, 3, 1, 3, 1, 1, 2];
